W=6;
H=5;

MAX_TIME=17;
MAX_TRACKS=15;

TARGET=(3,6);

TRAINS=[(3,3,DOWN),(1,3,DOWN)];

INIT_POS=[
(1,3,STRAIGHT_TD),
(3,1,STRAIGHT_TD),
(3,3,STRAIGHT_TD),
(3,5,STRAIGHT_RL),
(3,6,STRAIGHT_RL),
(4,3,STRAIGHT_TD),
(5,3,DSWITCH_R_L_T),
];
TUNNEL_PAIRS=[];

GATES=[
(3,5,1,false),
];
ACTIVATIONS=[
(3,1,1),
];

DSWITCHES=[
(5,3,1),
];
STATIONS=[];
